<instance format="XCSP3" type="CSP">
  <variables>
    <var id="x0"> 2 3 11 </var>
    <var id="x1"> 3 11 13 14 </var>
    <var id="x2"> 0 6 </var>
    <var id="x3"> 0 2 11 13 </var>
    <var id="x4"> 2 11 14 </var>
    <var id="x5"> 0 2 6 13 14 </var>
    <var id="x6"> 3 6 14 </var>
    <var id="x7"> 3 9 12 </var>
    <var id="x8"> 4 9 12 </var>
    <var id="x9"> 0 1 3 </var>
    <var id="x10"> 1 3 5 12 </var>
    <var id="x11"> 0 3 5 9 </var>
    <var id="x12"> 0 1 5 9 </var>
    <var id="x13"> 3 4 12 </var>
    <var id="x14"> 11 12 </var>
    <var id="x15"> 0 8 11 12 </var>
    <var id="x16"> 0 1 5 6 </var>
    <var id="x17"> 1 5 6 12 </var>
    <var id="x18"> 0 1 5 8 11 </var>
    <var id="x19"> 1 6 12 </var>
    <var id="x20"> 0 12 </var>
    <var id="x21"> 2 4 5 9 12 </var>
    <var id="x22"> 9 12 13 </var>
    <var id="x23"> 2 12 13 </var>
    <var id="x24"> 2 5 6 13 </var>
    <var id="x25"> 5 9 10 13 </var>
    <var id="x26"> 2 5 9 </var>
    <var id="x27"> 2 4..6 12 </var>
    <var id="x28"> 4 9 10 12 13 </var>
    <var id="x29"> 2 13 14 </var>
    <var id="x30"> 2 3 11 14 </var>
    <var id="x31"> 3 10 14 </var>
    <var id="x32"> 3 10 13 14 </var>
    <var id="x33"> 2..4 </var>
    <var id="x34"> 2 10 13 </var>
    <var id="x35"> 3 4 13 </var>
    <var id="x36"> 3 9 11 12 </var>
    <var id="x37"> 9 11 12 </var>
    <var id="x38"> 6 9 11 13 </var>
    <var id="x39"> 0 3 6 11 </var>
    <var id="x40"> 3 6 12 </var>
    <var id="x41"> 0 3 6 12 </var>
    <var id="x42"> 6 9 12 13 </var>
    <var id="x43"> 1..3 5 12 </var>
    <var id="x44"> 5 7 10 12 </var>
    <var id="x45"> 2 12 </var>
    <var id="x46"> 3 5 10 </var>
    <var id="x47"> 1 2 5 </var>
    <var id="x48"> 1 2 10 12 </var>
    <var id="x49"> 3 7 12 </var>
    <var id="x50"> 7 9 11 14 </var>
    <var id="x51"> 4 8 9 11 14 </var>
    <var id="x52"> 1 11 14 </var>
    <var id="x53"> 1 14 </var>
    <var id="x54"> 1 9 </var>
    <var id="x55"> 4 7 9 </var>
    <var id="x56"> 4 7 8 </var>
    <var id="x57"> 0 12 13 </var>
    <var id="x58"> 9 12 14 </var>
    <var id="x59"> 1 9 13 14 </var>
    <var id="x60"> 0 1 3 14 </var>
    <var id="x61"> 0 3 9 13 14 </var>
    <var id="x62"> 0 1 9 </var>
    <var id="x63"> 1 9 12 13 </var>
    <var id="x64"> 2 12 </var>
    <var id="x65"> 6..8 10 12 </var>
    <var id="x66"> 2 7 8 12 13 </var>
    <var id="x67"> 2 8 12 </var>
    <var id="x68"> 2 6 12 </var>
    <var id="x69"> 7 10 12 13 </var>
    <var id="x70"> 6..8 12 13 </var>
    <var id="x71"> 4 5 9 11 </var>
    <var id="x72"> 9 11 13 14 </var>
    <var id="x73"> 5 6 </var>
    <var id="x74"> 11 13 </var>
    <var id="x75"> 5 6 13 14 </var>
    <var id="x76"> 6 9 11 13 14 </var>
    <var id="x77"> 4..6 </var>
    <var id="x78"> 1 2 12 </var>
    <var id="x79"> 0 8 12 </var>
    <var id="x80"> 1 13 14 </var>
    <var id="x81"> 1 12 14 </var>
    <var id="x82"> 0 13 14 </var>
    <var id="x83"> 0 2 12 </var>
    <var id="x84"> 0 12 13 </var>
    <var id="x85"> 0 6 7 12 </var>
    <var id="x86"> 0 1 6 14 </var>
    <var id="x87"> 1 6 9 14 </var>
    <var id="x88"> 0 1 6 14 </var>
    <var id="x89"> 0 9 14 </var>
    <var id="x90"> 1 6 9 12 </var>
    <var id="x91"> 6 7 12 </var>
    <var id="x92"> 2 3 5 11 </var>
    <var id="x93"> 3 7 11 </var>
    <var id="x94"> 5 7 8 10 </var>
    <var id="x95"> 10 11 </var>
    <var id="x96"> 2 3 11 </var>
    <var id="x97"> 2 5 8 11 </var>
    <var id="x98"> 7 10 </var>
    <var id="x99"> 0 2 12 </var>
    <var id="x100"> 0 2 5 6 </var>
    <var id="x101"> 6 9 10 </var>
    <var id="x102"> 0 2 5 9 </var>
    <var id="x103"> 0 2 5 6 12 </var>
    <var id="x104"> 0 9 10 12 </var>
    <var id="x105"> 6 12 </var>
  </variables>
  <constraints>
    <group>
      <allDifferent> %... </allDifferent>
      <args> x0 x1 x2 x3 x4 x5 x6 </args>
      <args> x7 x8 x9 x10 x11 x12 x13 </args>
      <args> x14 x15 x16 x17 x18 x19 x20 </args>
      <args> x21 x22 x23 x24 x25 x26 x27 x28 </args>
      <args> x29 x30 x31 x32 x33 x34 x35 </args>
      <args> x36 x37 x38 x39 x40 x41 x42 </args>
      <args> x43 x44 x45 x46 x47 x48 x49 </args>
      <args> x50 x51 x52 x53 x54 x55 x56 </args>
      <args> x57 x58 x59 x60 x61 x62 x63 </args>
      <args> x64 x65 x66 x67 x68 x69 x70 </args>
      <args> x71 x72 x73 x74 x75 x76 x77 </args>
      <args> x78 x79 x80 x81 x82 x83 x84 </args>
      <args> x85 x86 x87 x88 x89 x90 x91 </args>
      <args> x92 x93 x94 x95 x96 x97 x98 </args>
      <args> x99 x100 x101 x102 x103 x104 x105 </args>
      <args> x0 x21 x36 x43 x64 x71 x78 x92 </args>
      <args> x1 x7 x14 x22 x50 x72 x93 </args>
      <args> x2 x44 x65 x73 x79 x85 x94 </args>
      <args> x3 x15 x23 x57 x66 x74 x99 </args>
      <args> x4 x8 x37 x45 x51 x58 x67 </args>
      <args> x5 x16 x24 x29 x75 x86 x100 </args>
      <args> x38 x59 x76 x80 x87 x95 x101 </args>
      <args> x9 x30 x39 x52 x60 x88 x96 </args>
      <args> x6 x10 x17 x31 x40 x53 x81 </args>
      <args> x11 x25 x32 x46 x61 x82 x89 </args>
      <args> x12 x18 x26 x47 x62 x97 x102 </args>
      <args> x27 x33 x41 x68 x77 x83 x103 </args>
      <args> x19 x34 x42 x48 x54 x63 x90 </args>
      <args> x20 x28 x55 x69 x84 x98 x104 </args>
      <args> x13 x35 x49 x56 x70 x91 x105 </args>
    </group>
  </constraints>
</instance>

